c This is a random SAT instance with 10 variables and 20 clauses
p cnf 10 20
9 4 0
6 -5 0
-2 0
-4 -5 -6 7 0
7 -3 -7 10 -6 -10 -4 5 4 0
-4 5 6 -7 -8 -10 2 -5 -3 0
6 9 -4 -1 10 -5 -3 0
-8 2 7 1 -6 0
-4 5 1 0
3 1 0
0
-5 -4 3 2 1 5 9 -9 -2 0
8 0
5 10 -9 0
4 6 -8 0
9 8 -7 2 0
6 -4 4 8 5 -10 -9 3 9 0
6 -7 7 2 3 10 -6 -3 9 0
-5 -4 2 9 6 -7 10 3 0
-1 6 -7 7 -5 5 0